data/solutions/recovery/degenerate/intermediate/binding/degenerate_intermediate_instance31/50.sol
Elapsed time: 0.04
Upper bound: 16505961.0
Planning weighted value: 1.85631679266e+11
C[0]=16505961.0
C[1]=16459133.0
C[2]=16227503.0
C[3]=15586785.0
C[4]=14856781.0
C[5]=14271384.0
C[6]=11354990.0
C[7]=11335420.0
C[8]=11329020.0
C[9]=11288087.0
C[10]=11282454.0
C[11]=11278809.0
C[12]=11278303.0
C[13]=11236570.0
y[0]=13
y[1]=8
y[2]=1
y[3]=1
y[4]=6
y[5]=4
y[6]=4
y[7]=6
y[8]=10
y[9]=6
y[10]=1
y[11]=7
y[12]=2
y[13]=9
y[14]=12
y[15]=5
y[16]=13
y[17]=2
y[18]=11
y[19]=7
y[20]=3
y[21]=3
y[22]=10
y[23]=11
y[24]=10
y[25]=13
y[26]=6
y[27]=6
y[28]=8
y[29]=0
y[30]=3
y[31]=11
y[32]=0
y[33]=1
y[34]=3
y[35]=12
y[36]=13
y[37]=0
y[38]=12
y[39]=4
y[40]=11
y[41]=7
y[42]=5
y[43]=3
y[44]=5
y[45]=9
y[46]=8
y[47]=9
y[48]=3
y[49]=3
y[50]=0
y[51]=3
y[52]=1
y[53]=4
y[54]=12
y[55]=2
y[56]=2
y[57]=2
y[58]=3
y[59]=3
y[60]=5
y[61]=0
y[62]=0
y[63]=5
y[64]=8
y[65]=7
y[66]=9
y[67]=10
y[68]=11
y[69]=10
y[70]=7
y[71]=9
y[72]=13
y[73]=6
y[74]=9
y[75]=0
y[76]=4
y[77]=5
y[78]=1
y[79]=3
