data/solutions/recovery/degenerate/intermediate/binding/degenerate_intermediate_instance31/50.log

Log started (V12.6.3.0) Sun Apr 22 12:34:11 2018

New value for default parallel thread count: 1

Problem '/tmp/tmpEqZTUb.pyomo.lp' read.
Read time = 0.02 sec. (1.11 ticks)

Problem name         : /tmp/tmpEqZTUb.pyomo.lp
Objective sense      : Minimize
Variables            :    1136  [Nneg: 1,  Binary: 1120,  General Integer: 15]
Objective nonzeros   :       1
Linear constraints   :     189  [Less: 94,  Equal: 95]
  Nonzeros           :   80213
  RHS nonzeros       :      81

Variables            : Min LB: 0.000000         Max UB: 1.000000       
Objective nonzeros   : Min   : 1.000000         Max   : 1.000000       
Linear constraints   :
  Nonzeros           : Min   : 1.000000         Max   : 8036379.       
  RHS nonzeros       : Min   : 1.000000         Max   : 1.000000       
Tried aggregator 2 times.
MIP Presolve eliminated 156 rows and 1051 columns.
Aggregator did 14 substitutions.
Reduced MIP has 19 rows, 71 columns, and 154 nonzeros.
Reduced MIP has 70 binaries, 1 generals, 0 SOSs, and 0 indicators.
Presolve time = 0.00 sec. (4.83 ticks)
Found incumbent of value 3.6307089e+07 after 0.01 sec. (6.76 ticks)
Probing time = 0.00 sec. (0.09 ticks)
Tried aggregator 1 time.
Reduced MIP has 19 rows, 71 columns, and 154 nonzeros.
Reduced MIP has 70 binaries, 1 generals, 0 SOSs, and 0 indicators.
Presolve time = 0.00 sec. (0.11 ticks)
Probing time = 0.00 sec. (0.09 ticks)
Clique table members: 5.
MIP emphasis: balance optimality and feasibility.
MIP search method: dynamic search.
Parallel mode: none, using 1 thread.
Root relaxation solution time = 0.00 sec. (0.06 ticks)

        Nodes                                         Cuts/
   Node  Left     Objective  IInf  Best Integer    Best Bound    ItCnt     Gap

*     0+    0                       3.63071e+07   1.62275e+07            55.30%
      0     0   1.62275e+07     8   3.63071e+07   1.62275e+07       13   55.30%
*     0+    0                       1.86111e+07   1.62275e+07            12.81%
      0     0   1.62275e+07     4   1.86111e+07      Fract: 4       19   12.81%
*     0+    0                       1.75208e+07   1.62275e+07             7.38%
      0     0   1.62275e+07     4   1.75208e+07       Cuts: 3       24    7.38%
*     0+    0                       1.75115e+07   1.62275e+07             7.33%
      0     0   1.62275e+07     4   1.75115e+07       Cuts: 2       29    7.33%
*     0+    0                       1.74692e+07   1.62275e+07             7.11%
*     0+    0                       1.74532e+07   1.62275e+07             7.02%
*     0+    0                       1.73103e+07   1.62275e+07             6.25%
*     0+    0                       1.73010e+07   1.62275e+07             6.20%
*     0+    0                       1.73005e+07   1.62275e+07             6.20%

Repeating presolve.
Tried aggregator 1 time.
MIP Presolve eliminated 3 rows and 38 columns.
MIP Presolve modified 13 coefficients.
Reduced MIP has 16 rows, 33 columns, and 76 nonzeros.
Reduced MIP has 32 binaries, 1 generals, 0 SOSs, and 0 indicators.
Presolve time = 0.00 sec. (0.12 ticks)
Probing time = 0.00 sec. (0.04 ticks)
Tried aggregator 1 time.
MIP Presolve modified 6 coefficients.
Reduced MIP has 16 rows, 33 columns, and 76 nonzeros.
Reduced MIP has 32 binaries, 1 generals, 0 SOSs, and 0 indicators.
Presolve time = 0.00 sec. (0.07 ticks)
Represolve time = 0.00 sec. (0.42 ticks)
Probing time = 0.00 sec. (0.04 ticks)
Clique table members: 16.
MIP emphasis: balance optimality and feasibility.
MIP search method: dynamic search.
Parallel mode: none, using 1 thread.
Root relaxation solution time = 0.00 sec. (0.04 ticks)

        Nodes                                         Cuts/
   Node  Left     Objective  IInf  Best Integer    Best Bound    ItCnt     Gap

*     0+    0                       1.73005e+07   1.62275e+07             6.20%
      0     0   1.62275e+07     6   1.73005e+07   1.62275e+07       33    6.20%
*     0+    0                       1.72702e+07   1.62275e+07             6.04%
      0     0   1.62275e+07     4   1.72702e+07      Fract: 2       37    6.04%
*     0+    0                       1.72587e+07   1.62275e+07             5.98%
      0     0   1.62275e+07     4   1.72587e+07      Fract: 2       42    5.98%
*     0+    0                       1.67004e+07   1.62275e+07             2.83%
*     0+    0                       1.66999e+07   1.62275e+07             2.83%
*     0+    0                       1.65643e+07   1.62275e+07             2.03%

Repeating presolve.
Tried aggregator 2 times.
MIP Presolve eliminated 10 rows and 27 columns.
MIP Presolve modified 13 coefficients.
Aggregator did 2 substitutions.
Reduced MIP has 4 rows, 4 columns, and 9 nonzeros.
Reduced MIP has 3 binaries, 1 generals, 0 SOSs, and 0 indicators.
Presolve time = 0.00 sec. (0.04 ticks)
Probing time = 0.00 sec. (0.00 ticks)
Cover probing fixed 0 vars, tightened 1 bounds.
Tried aggregator 1 time.
MIP Presolve eliminated 1 rows and 0 columns.
MIP Presolve modified 5 coefficients.
Reduced MIP has 3 rows, 4 columns, and 7 nonzeros.
Reduced MIP has 3 binaries, 1 generals, 0 SOSs, and 0 indicators.
Presolve time = 0.00 sec. (0.01 ticks)
Represolve time = 0.00 sec. (0.18 ticks)
Probing time = 0.00 sec. (0.00 ticks)
Clique table members: 1.
MIP emphasis: balance optimality and feasibility.
MIP search method: dynamic search.
Parallel mode: none, using 1 thread.
Root relaxation solution time = 0.00 sec. (0.00 ticks)

        Nodes                                         Cuts/
   Node  Left     Objective  IInf  Best Integer    Best Bound    ItCnt     Gap

*     0+    0                       1.65643e+07   1.65060e+07             0.35%
*     0     0      integral     0   1.65060e+07   1.65060e+07       42    0.00%
Elapsed time = 0.01 sec. (9.90 ticks, tree = 0.00 MB, solutions = 15)

Root node processing (before b&c):
  Real time             =    0.01 sec. (10.04 ticks)
Sequential b&c:
  Real time             =    0.00 sec. (0.00 ticks)
                          ------------
Total (root+branch&cut) =    0.01 sec. (10.04 ticks)

Solution pool: 15 solutions saved.

MIP - Integer optimal solution:  Objective =  1.6505961000e+07
Solution time =    0.01 sec.  Iterations = 42  Nodes = 0
Deterministic time = 10.04 ticks  (814.22 ticks/sec)


Incumbent solution written to file '/tmp/tmpJO9azH.cplex.sol'.
